SECTION Graph
Nodes 145
Edges 283
E 1 70 7
E 1 71 1
E 2 72 1
E 3 11 19
E 3 72 15
E 4 5 1
E 4 53 19
E 5 7 15
E 5 54 19
E 6 7 1
E 6 55 7
E 7 32 7
E 7 49 19
E 8 9 1
E 8 24 7
E 8 65 1
E 8 71 19
E 9 11 15
E 9 66 1
E 9 72 19
E 10 11 1
E 10 66 15
E 12 51 4
E 12 126 16
E 13 52 5
E 13 131 16
E 14 15 1
E 14 125 7
E 14 127 1
E 15 129 1
E 16 129 15
E 16 131 10
E 17 18 1
E 17 101 7
E 17 107 1
E 17 114 2
E 18 20 15
E 18 111 1
E 18 116 2
E 19 20 1
E 19 104 18
E 19 111 15
E 20 126 2
E 21 22 1
E 21 35 7
E 21 59 1
E 21 61 19
E 22 24 15
E 22 60 1
E 22 63 19
E 23 24 1
E 23 60 15
E 23 65 7
E 24 69 19
E 25 26 1
E 25 38 7
E 25 113 1
E 26 115 1
E 27 115 15
E 27 125 2
E 28 29 1
E 28 50 7
E 28 57 1
E 28 73 57
E 29 31 15
E 29 58 1
E 29 75 57
E 30 31 1
E 30 35 19
E 30 58 15
E 30 61 7
E 31 62 7
E 31 80 57
E 32 33 1
E 32 55 1
E 32 57 19
E 33 35 15
E 33 56 1
E 33 58 19
E 34 35 1
E 34 56 15
E 34 59 7
E 36 37 1
E 36 87 1
E 37 90 1
E 38 90 15
E 38 102 1
E 39 40 1
E 39 77 1
E 39 86 18
E 40 42 15
E 40 78 1
E 40 88 18
E 41 42 1
E 41 78 15
E 41 79 6
E 41 94 7
E 42 95 7
E 42 102 18
E 43 44 1
E 43 67 1
E 43 77 25
E 44 46 15
E 44 68 1
E 44 78 25
E 45 46 1
E 45 50 57
E 45 68 15
E 45 73 7
E 46 74 7
E 46 79 19
E 47 48 1
E 47 53 1
E 47 67 57
E 48 50 15
E 48 54 1
E 48 68 57
E 49 50 1
E 49 54 15
E 49 57 7
E 51 52 1
E 51 128 16
E 52 130 16
E 53 54 1
E 55 56 1
E 57 58 1
E 59 60 1
E 61 62 1
E 61 63 1
E 62 64 1
E 62 89 57
E 63 64 1
E 63 69 15
E 64 70 15
E 64 92 57
E 65 66 1
E 67 68 1
E 69 70 1
E 69 71 7
E 70 103 57
E 71 72 1
E 73 74 1
E 73 75 1
E 74 76 1
E 74 82 18
E 75 76 1
E 75 80 15
E 76 81 15
E 76 84 18
E 77 78 1
E 79 83 7
E 80 81 1
E 80 89 7
E 81 91 7
E 81 100 18
E 82 83 1
E 82 84 1
E 83 85 1
E 83 94 6
E 84 85 1
E 84 100 15
E 85 96 6
E 85 101 15
E 86 87 1
E 86 88 1
E 87 90 1
E 88 90 1
E 88 102 15
E 89 91 1
E 89 92 1
E 91 93 1
E 91 107 18
E 92 93 1
E 92 103 15
E 93 104 15
E 93 111 18
E 94 95 1
E 94 96 1
E 95 97 1
E 95 98 5
E 96 97 1
E 96 106 15
E 97 99 5
E 97 110 15
E 98 99 1
E 98 105 10
E 99 109 10
E 99 117 15
E 100 101 1
E 100 107 7
E 101 106 6
E 102 113 7
E 103 104 1
E 105 108 1
E 105 109 1
E 106 110 1
E 106 118 7
E 107 111 1
E 108 112 1
E 108 113 2
E 109 112 1
E 109 124 15
E 110 117 5
E 110 119 7
E 112 115 2
E 112 125 15
E 113 115 1
E 114 116 1
E 114 118 4
E 116 120 4
E 116 126 15
E 117 122 7
E 117 124 10
E 118 119 1
E 118 120 1
E 119 121 1
E 119 122 5
E 120 121 1
E 120 128 15
E 121 123 5
E 121 130 15
E 122 123 1
E 122 127 10
E 123 129 10
E 123 131 15
E 124 125 1
E 124 127 7
E 126 128 4
E 127 129 1
E 128 130 1
E 130 131 5
E 1 132 100000
E 2 132 100000
E 3 132 100000
E 4 133 100000
E 5 133 100000
E 6 133 100000
E 7 133 100000
E 8 134 100000
E 9 134 100000
E 10 134 100000
E 11 134 100000
E 12 135 100000
E 13 135 100000
E 14 136 100000
E 15 136 100000
E 16 136 100000
E 17 137 100000
E 18 137 100000
E 19 137 100000
E 20 137 100000
E 21 138 100000
E 22 138 100000
E 23 138 100000
E 24 138 100000
E 25 139 100000
E 26 139 100000
E 27 139 100000
E 28 140 100000
E 29 140 100000
E 30 140 100000
E 31 140 100000
E 32 141 100000
E 33 141 100000
E 34 141 100000
E 35 141 100000
E 36 142 100000
E 37 142 100000
E 38 142 100000
E 39 143 100000
E 40 143 100000
E 41 143 100000
E 42 143 100000
E 43 144 100000
E 44 144 100000
E 45 144 100000
E 46 144 100000
E 47 145 100000
E 48 145 100000
E 49 145 100000
E 50 145 100000
E 51 135 100000
E 52 135 100000
END

SECTION Terminals
Terminals 14
T 132
T 133
T 134
T 135
T 136
T 137
T 138
T 139
T 140
T 141
T 142
T 143
T 144
T 145
END

EOF
